--- Job puertos_continua.gms Start 10/28/22 01:08:53 40.2.0 6cf3fb9c LEX-LEG x86 64bit/Linux
--- Applying:
    /opt/GAMS/gams40.2_linux_x64_64_sfx/gmsprmun.txt
--- GAMS Parameters defined
    Input /home/embid/Desktop/class/mog/modelos-operativos-gestion/ejercicios/gams/puertos_continua.gms
    PageSize 0
    ScrDir /home/embid/Desktop/class/mog/modelos-operativos-gestion/ejercicios/gams/225a/
    SysDir /opt/GAMS/gams40.2_linux_x64_64_sfx/
    LogOption 3
    ErrMsg 1
    ErrorLog 99
    IDE 1
    LstTitleLeftAligned 1
Licensee: GAMS Demo license for Juan Embid               G220915|0002CO-GEN
          Universidad Complutense de Madrid, Spain                 DL073690
          /opt/GAMS/gams40.2_linux_x64_64_sfx/gamslice.txt
          jembid@ucm.es, Juan Embid                                        
          Demo license for demonstration and instructional purposes only
Processor information: 1 socket(s), 4 core(s), and 8 thread(s) available
GAMS 40.2.0   Copyright (C) 1987-2022 GAMS Development. All rights reserved
--- Starting compilation
--- puertos_continua.gms(100) 3 Mb
--- Starting execution: elapsed 0:00:00.021
--- puertos_continua.gms(97) 4 Mb
--- Generating LP model TransMerc
--- puertos_continua.gms(99) 4 Mb
---   18 rows  25 columns  91 non-zeroes
--- Range statistics (absolute non-zero finite values)
--- RHS       [min, max] : [ 1.000E+03, 4.500E+03] - Zero values observed as well
--- Bound     [min, max] : [        NA,        NA] - Zero values observed as well
--- Matrix    [min, max] : [ 1.000E+00, 9.000E+00]
--- Executing CPLEX (Solvelink=2): elapsed 0:00:00.029

IBM ILOG CPLEX   40.2.0 6cf3fb9c Sep 1, 2022           LEG x86 64bit/Linux    

--- *** This solver runs with a demo license. No commercial use.

*** Error Cannot open parameter file "/home/embid/Desktop/class/mog/modelos-operativos-gestion/ejercicios/gams/cplex.opt"
*** Error Error code = 2; No such file or directory

--- GMO setup time: 0.00s
--- GMO memory 0.50 Mb (peak 0.50 Mb)
--- Dictionary memory 0.00 Mb
--- Cplex 22.1.0.0 link memory 0.00 Mb (peak 0.00 Mb)
--- Starting Cplex

Version identifier: 22.1.0.0 | 2022-03-09 | 1a383f8ce
CPXPARAM_Advance                                 0
CPXPARAM_Simplex_Display                         2
CPXPARAM_Threads                                 1
CPXPARAM_MIP_Display                             4
CPXPARAM_MIP_Pool_Capacity                       0
CPXPARAM_MIP_Tolerances_AbsMIPGap                0
Tried aggregator 1 time.
LP Presolve eliminated 0 rows and 1 columns.
Reduced LP has 17 rows, 24 columns, and 66 nonzeros.
Presolve time = 0.00 sec. (0.02 ticks)

Iteration      Dual Objective            In Variable           Out Variable
     1           12000.000000         ruta_tEU(PG,L)       demanda(L) slack
     2           24000.000000           ruta_m(1,PG)  balance_PEU(PG) artif
     3           32000.000000           ruta_m(2,PG)    balance_PA(1) artif
     4           46000.000000         ruta_tEU(PB,B)       demanda(B) slack
     5           50000.000000         ruta_tEU(PB,L)    balance_PA(2) artif
     6           62000.000000           ruta_m(3,PG)  balance_PEU(PB) artif
     7           68000.000000           ruta_tA(2,1)    balance_PA(3) artif
     8           68000.000000           ruta_tA(4,1)    suministro(2) slack
     9           72000.000000           ruta_tA(1,3)  capacidad_PA(1) slack
    10           78000.000000           ruta_m(3,PB)         ruta_tEU(PB,L)
    11           81000.000000           ruta_tA(2,2)    suministro(1) slack
    12           94000.000000         ruta_tEU(PB,Z)       demanda(Z) slack
    13           97000.000000           ruta_tA(3,2)    suministro(4) slack
    14           99000.000000           ruta_m(2,PB)           ruta_m(3,PG)
    15          102000.000000           ruta_tA(3,3)  capacidad_PA(2) slack

--- LP status (1): optimal.
--- Cplex Time: 0.01sec (det. 0.05 ticks)


Optimal solution found
Objective:       102000.000000

--- Reading solution for model TransMerc
*** Status: Normal completion
--- Job puertos_continua.gms Stop 10/28/22 01:08:53 elapsed 0:00:00.071
